presolving:
(round 1, fast)       2996 del vars, 2996 del conss, 0 add conss, 40000 chg bounds, 0 chg sides, 0 chg coeffs, 0 upgd conss, 0 impls, 0 clqs
   (0.6s) running MILP presolver
   (0.8s) MILP presolver found nothing
(round 2, exhaustive) 2996 del vars, 2996 del conss, 0 add conss, 40000 chg bounds, 0 chg sides, 0 chg coeffs, 20005 upgd conss, 0 impls, 0 clqs
   (1.3s) probing: 51/104 (49.0%) - 0 fixings, 0 aggregations, 0 implications, 0 bound changes
   (1.3s) probing aborted: 50/50 successive totally useless probings
   (1.6s) symmetry computation started: requiring (bin +, int -, cont +), (fixed: bin -, int +, cont -)
   (1.6s) no symmetry present
presolving (3 rounds: 3 fast, 2 medium, 2 exhaustive):
 2996 deleted vars, 3000 deleted constraints, 9 added constraints, 40000 tightened bounds, 0 added holes, 0 changed sides, 1 changed coefficients
 20000 implications, 9 cliques
presolved problem has 20104 variables (104 bin, 0 int, 0 impl, 20000 cont) and 20310 constraints
  20000 constraints of type <varbound>
      1 constraints of type <knapsack>
      9 constraints of type <setppc>
    300 constraints of type <linear>
Presolving Time: 1.48

 time | node  | left  |LP iter|LP it/n|mem/heur|mdpt |vars |cons |rows |cuts |sepa|confs|strbr|  dualbound   | primalbound  |  gap   | compl. 
p 2.0s|     1 |     0 |   200 |     - |   locks|   0 |  20k|  20k|  20k|   0 |  0 |   0 |   0 |-7.272442e+02 | 9.530706e+05 |    Inf | unknown
i 2.0s|     1 |     0 |   200 |     - |  oneopt|   0 |  20k|  20k|  20k|   0 |  0 |   0 |   0 |-7.272442e+02 | 7.844796e+05 |    Inf | unknown
 22.5s|     1 |     0 | 10886 |     - |   187M |   0 |  20k|  20k|  20k|   0 |  0 |   0 |   0 | 1.062474e+05 | 7.844796e+05 | 638.35%| unknown
r22.5s|     1 |     0 | 10886 |     - |simplero|   0 |  20k|  20k|  20k|   0 |  0 |   0 |   0 | 1.062474e+05 | 1.207463e+05 |  13.65%| unknown
r22.9s|     1 |     0 | 10886 |     - |shifting|   0 |  20k|  20k|  20k|   0 |  0 |   0 |   0 | 1.062474e+05 | 1.130128e+05 |   6.37%| unknown
 23.3s|     1 |     0 | 11013 |     - |   192M |   0 |  20k|  20k|  20k|   3 |  1 |   0 |   0 | 1.062766e+05 | 1.130128e+05 |   6.34%| unknown
 23.5s|     1 |     0 | 11013 |     - |   194M |   0 |  20k|  20k|  20k|   3 |  1 |   0 |   0 | 1.062766e+05 | 1.130128e+05 |   6.34%| unknown
 23.7s|     1 |     0 | 11013 |     - |   196M |   0 |  20k|  20k|  18k|   3 |  2 |   0 |   0 | 1.062766e+05 | 1.130128e+05 |   6.34%| unknown
 23.9s|     1 |     0 | 11028 |     - |   198M |   0 |  20k|  20k|  18k|   4 |  3 |   0 |   0 | 1.062781e+05 | 1.130128e+05 |   6.34%| unknown
 24.3s|     1 |     0 | 11078 |     - |   200M |   0 |  20k|  20k|  18k|   6 |  4 |   0 |   0 | 1.062854e+05 | 1.130128e+05 |   6.33%| unknown
 24.6s|     1 |     0 | 11105 |     - |   204M |   0 |  20k|  20k|  18k|  10 |  5 |   0 |   0 | 1.062867e+05 | 1.130128e+05 |   6.33%| unknown
 24.9s|     1 |     0 | 11159 |     - |   206M |   0 |  20k|  20k|  18k|  12 |  6 |   0 |   0 | 1.062918e+05 | 1.130128e+05 |   6.32%| unknown
 25.6s|     1 |     0 | 11247 |     - |   208M |   0 |  20k|  20k|  18k|  14 |  7 |   0 |   0 | 1.063041e+05 | 1.130128e+05 |   6.31%| unknown
 25.9s|     1 |     0 | 11274 |     - |   211M |   0 |  20k|  20k|  18k|  15 |  8 |   0 |   0 | 1.063109e+05 | 1.130128e+05 |   6.30%| unknown
 26.1s|     1 |     0 | 11317 |     - |   213M |   0 |  20k|  20k|  18k|  16 |  9 |   0 |   0 | 1.063233e+05 | 1.130128e+05 |   6.29%| unknown
 time | node  | left  |LP iter|LP it/n|mem/heur|mdpt |vars |cons |rows |cuts |sepa|confs|strbr|  dualbound   | primalbound  |  gap   | compl. 
 26.4s|     1 |     0 | 11355 |     - |   217M |   0 |  20k|  20k|  18k|  18 | 10 |   0 |   0 | 1.063286e+05 | 1.130128e+05 |   6.29%| unknown
 26.9s|     1 |     0 | 11424 |     - |   219M |   0 |  20k|  20k|  18k|  20 | 11 |   0 |   0 | 1.063444e+05 | 1.130128e+05 |   6.27%| unknown
 27.3s|     1 |     0 | 11468 |     - |   221M |   0 |  20k|  20k|  18k|  22 | 12 |   0 |   0 | 1.063505e+05 | 1.130128e+05 |   6.26%| unknown
r27.3s|     1 |     0 | 11468 |     - |shifting|   0 |  20k|  20k|  18k|  22 | 12 |   0 |   0 | 1.063505e+05 | 1.124133e+05 |   5.70%| unknown
 27.7s|     1 |     0 | 11494 |     - |   225M |   0 |  20k|  20k|  18k|  23 | 13 |   0 |   0 | 1.063522e+05 | 1.124133e+05 |   5.70%| unknown
r27.8s|     1 |     0 | 11494 |     - |shifting|   0 |  20k|  20k|  18k|  23 | 13 |   0 |   0 | 1.063522e+05 | 1.122598e+05 |   5.55%| unknown
 27.9s|     1 |     0 | 11494 |     - |   226M |   0 |  20k|  20k|  18k|  23 | 13 |   0 |   0 | 1.063522e+05 | 1.122598e+05 |   5.55%| unknown
 28.3s|     1 |     0 | 11503 |     - |   226M |   0 |  20k|  20k|  18k|  24 | 14 |   0 |   0 | 1.063525e+05 | 1.122598e+05 |   5.55%| unknown
 28.6s|     1 |     0 | 11547 |     - |   228M |   0 |  20k|  20k|  18k|  25 | 15 |   0 |   0 | 1.063539e+05 | 1.122598e+05 |   5.55%| unknown
 29.0s|     1 |     0 | 11588 |     - |   230M |   0 |  20k|  20k|  18k|  27 | 16 |   0 |   0 | 1.063555e+05 | 1.122598e+05 |   5.55%| unknown
r29.1s|     1 |     0 | 11588 |     - |shifting|   0 |  20k|  20k|  18k|  27 | 16 |   0 |   0 | 1.063555e+05 | 1.121212e+05 |   5.42%| unknown
 29.4s|     1 |     0 | 11633 |     - |   233M |   0 |  20k|  20k|  18k|  29 | 17 |   0 |   0 | 1.063589e+05 | 1.121212e+05 |   5.42%| unknown
 29.5s|     1 |     0 | 11633 |     - |   233M |   0 |  20k|  20k|  18k|  29 | 17 |   0 |   0 | 1.063589e+05 | 1.121212e+05 |   5.42%| unknown
 29.9s|     1 |     0 | 11638 |     - |   236M |   0 |  20k|  20k|  18k|  30 | 18 |   0 |   0 | 1.063591e+05 | 1.121212e+05 |   5.42%| unknown
 30.3s|     1 |     0 | 11671 |     - |   238M |   0 |  20k|  20k|  18k|  31 | 19 |   0 |   0 | 1.063615e+05 | 1.121212e+05 |   5.42%| unknown
 time | node  | left  |LP iter|LP it/n|mem/heur|mdpt |vars |cons |rows |cuts |sepa|confs|strbr|  dualbound   | primalbound  |  gap   | compl. 
 30.6s|     1 |     0 | 11672 |     - |   241M |   0 |  20k|  20k|  18k|  32 | 20 |   0 |   0 | 1.063623e+05 | 1.121212e+05 |   5.41%| unknown
 30.9s|     1 |     0 | 11680 |     - |   242M |   0 |  20k|  20k|  18k|  33 | 21 |   0 |   0 | 1.063628e+05 | 1.121212e+05 |   5.41%| unknown
r32.4s|     1 |     0 | 12520 |     - |intshift|   0 |  20k|  18k|  18k|  33 | 21 |   0 |   0 | 1.063628e+05 | 1.083754e+05 |   1.89%| unknown
d42.6s|     1 |     0 | 17376 |     - |farkasdi|   0 |  20k|  18k|  18k|   0 | 21 |   0 |   0 | 1.063628e+05 | 1.079176e+05 |   1.46%| unknown
L43.7s|     1 |     0 | 17376 |     - |    rens|   0 |  20k|  18k|  18k|  33 | 21 |   0 |   0 | 1.063628e+05 | 1.065203e+05 |   0.15%| unknown
(run 1, node 1) restarting after 11 global fixings of integer variables

(restart) converted 26 cuts from the global cut pool into linear constraints

presolving:
(round 1, fast)       2011 del vars, 0 del conss, 0 add conss, 0 chg bounds, 0 chg sides, 0 chg coeffs, 0 upgd conss, 20000 impls, 7 clqs
presolving (2 rounds: 2 fast, 1 medium, 1 exhaustive):
 2011 deleted vars, 0 deleted constraints, 0 added constraints, 0 tightened bounds, 0 added holes, 0 changed sides, 0 changed coefficients
 20000 implications, 7 cliques
presolved problem has 18093 variables (93 bin, 0 int, 0 impl, 18000 cont) and 18324 constraints
  18000 constraints of type <varbound>
      1 constraints of type <knapsack>
      7 constraints of type <setppc>
    316 constraints of type <linear>
Presolving Time: 2.01
transformed 49/51 original solutions to the transformed problem space

 time | node  | left  |LP iter|LP it/n|mem/heur|mdpt |vars |cons |rows |cuts |sepa|confs|strbr|  dualbound   | primalbound  |  gap   | compl. 
 62.5s|     1 |     0 | 27426 |     - |   280M |   0 |  18k|  18k|  18k|   0 |  0 |   0 |   0 | 1.063628e+05 | 1.065203e+05 |   0.15%| unknown
 66.1s|     1 |     0 | 27426 |     - |   281M |   0 |  18k|  18k|  18k|   0 |  0 |   0 |   0 | 1.063628e+05 | 1.065203e+05 |   0.15%| unknown
 66.6s|     1 |     0 | 27518 |     - |   284M |   0 |  18k|  18k|  12k|   3 |  1 |   0 |   0 | 1.063645e+05 | 1.065203e+05 |   0.15%| unknown
 66.9s|     1 |     0 | 27573 |     - |   286M |   0 |  18k|  18k|  12k|   6 |  2 |   0 |   0 | 1.063681e+05 | 1.065203e+05 |   0.14%| unknown
 67.3s|     1 |     0 | 27593 |     - |   288M |   0 |  18k|  18k|  12k|   8 |  3 |   0 |   0 | 1.063686e+05 | 1.065203e+05 |   0.14%| unknown
 67.6s|     1 |     0 | 27611 |     - |   291M |   0 |  18k|  18k|  12k|  10 |  4 |   0 |   0 | 1.063694e+05 | 1.065203e+05 |   0.14%| unknown
 67.9s|     1 |     0 | 27629 |     - |   292M |   0 |  18k|  18k|  12k|  11 |  5 |   0 |   0 | 1.063712e+05 | 1.065203e+05 |   0.14%| unknown
 68.2s|     1 |     0 | 27637 |     - |   293M |   0 |  18k|  18k|  12k|  12 |  6 |   0 |   0 | 1.063715e+05 | 1.065203e+05 |   0.14%| unknown
 68.5s|     1 |     0 | 27656 |     - |   294M |   0 |  18k|  18k|  12k|  13 |  7 |   0 |   0 | 1.063718e+05 | 1.065203e+05 |   0.14%| unknown
 68.8s|     1 |     0 | 27672 |     - |   298M |   0 |  18k|  18k|  12k|  14 |  9 |   0 |   0 | 1.063720e+05 | 1.065203e+05 |   0.14%| unknown
 69.1s|     1 |     0 | 27675 |     - |   300M |   0 |  18k|  18k|  12k|  15 | 10 |   0 |   0 | 1.063721e+05 | 1.065203e+05 |   0.14%| unknown
 69.5s|     1 |     0 | 27676 |     - |   302M |   0 |  18k|  18k|  12k|  16 | 11 |   0 |   0 | 1.063721e+05 | 1.065203e+05 |   0.14%| unknown
 69.8s|     1 |     0 | 27678 |     - |   303M |   0 |  18k|  18k|  12k|  17 | 12 |   0 |   0 | 1.063724e+05 | 1.065203e+05 |   0.14%| unknown
(run 2, node 1) restarting after 37 global fixings of integer variables

(restart) converted 16 cuts from the global cut pool into linear constraints

presolving:
(round 1, fast)       6837 del vars, 0 del conss, 0 add conss, 0 chg bounds, 0 chg sides, 7609 chg coeffs, 0 upgd conss, 20000 impls, 0 clqs
   (72.6s) running MILP presolver
   (72.6s) MILP presolver found nothing
presolving (2 rounds: 2 fast, 1 medium, 1 exhaustive):
 6837 deleted vars, 2 deleted constraints, 0 added constraints, 0 tightened bounds, 0 added holes, 1 changed sides, 7610 changed coefficients
 20000 implications, 0 cliques
presolved problem has 11256 variables (56 bin, 0 int, 0 impl, 11200 cont) and 11499 constraints
  11200 constraints of type <varbound>
      1 constraints of type <knapsack>
    297 constraints of type <linear>
      1 constraints of type <logicor>
Presolving Time: 2.99
transformed 64/75 original solutions to the transformed problem space

 time | node  | left  |LP iter|LP it/n|mem/heur|mdpt |vars |cons |rows |cuts |sepa|confs|strbr|  dualbound   | primalbound  |  gap   | compl. 
 78.4s|     1 |     0 | 33513 |     - |   319M |   0 |  11k|  11k|  11k|   0 |  0 |  14k|   0 | 1.063724e+05 | 1.065203e+05 |   0.14%| unknown
 78.5s|     1 |     0 | 33513 |     - |   320M |   0 |  11k|  11k|  11k|   0 |  0 |  14k|   0 | 1.063724e+05 | 1.065203e+05 |   0.14%| unknown
 79.5s|     1 |     0 | 33907 |     - |   322M |   0 |  11k|  11k|7599 |   5 |  1 |  14k|   0 | 1.065143e+05 | 1.065203e+05 |   0.01%| unknown
 79.6s|     1 |     0 | 33907 |     - |   322M |   0 |  11k|  11k|7001 |   5 |  1 |  14k|   0 | 1.065143e+05 | 1.065203e+05 |   0.01%| unknown
 79.8s|     1 |     0 | 33915 |     - |   323M |   0 |  11k|  11k|7004 |   8 |  2 |  14k|   0 | 1.065203e+05 | 1.065203e+05 |   0.00%| unknown
 79.8s|     1 |     0 | 33915 |     - |   323M |   0 |  11k|  11k|7004 |   8 |  2 |  14k|   0 | 1.065203e+05 | 1.065203e+05 |   0.00%| unknown

SCIP Status        : problem is solved [optimal solution found]
Solving Time (sec) : 79.79
Solving Nodes      : 1 (total of 3 nodes in 3 runs)
Primal Bound       : +1.06520337464707e+05 (79 solutions)
Dual Bound         : +1.06520337464707e+05
Gap                : 0.00 %
Solve Status: optimal
Solve Time: 79.81 seconds
